5 40
1000
773 71
526 541
254 139
423 362
307 498
324 436
464 511
961 124
54 58
205 409
914 568
777 265
617 386
603 599
434 982
55 375
74 187
661 384
661 986
289 60
567 610
441 261
700 45
287 604
609 844
741 473
457 410
949 678
510 242
312 449
769 928
385 304
763 382
845 283
625 751
522 791
412 190
889 828
540 581
737 40
67 231
650 756
2 589
334 463
935 665
